data/processed_heuristic-threshold/instances/1/9/ds_606_courier_2688/pairwise.tsp
NAME: ds_606_courier_2688
TYPE: TSP
COMMENT: nil
DIMENSION: 10
EDGE_WEIGHT_TYPE: EXPLICIT
EDGE_WEIGHT_FORMAT: FULL_MATRIX
EDGE_WEIGHT_SECTION
9999 4285 4256 4059 4106 3036 4717 4655 4703 4674 
4285 9999 545 228 251 1286 462 597 617 500 
4256 545 9999 589 723 1230 615 412 463 489 
4059 228 589 9999 153 1071 685 767 797 700 
4106 251 723 153 9999 1159 702 845 867 751 
3036 1286 1230 1071 1159 9999 1691 1621 1668 1638 
4717 462 615 685 702 1691 9999 325 303 164 
4655 597 412 767 845 1621 325 9999 51 161 
4703 617 463 797 867 1668 303 51 9999 146 
4674 500 489 700 751 1638 164 161 146 9999 
