data/processed_heuristic-threshold/instances/1/9/ds_606_courier_2688/pairwise.sol
10
0 3 4 1 6 9 8 7 2 5 
